p cnf 59 270
c p weight 12 0 0
c p weight -12 1 0
c p weight 13 1 0
c p weight -13 1 0
c p weight 21 0 0
c p weight -21 1 0
c p weight 22 1 0
c p weight -22 1 0
c p weight 31 0 0
c p weight -31 1 0
c p weight 32 1 0
c p weight -32 1 0
c p weight 43 0 0
c p weight -43 1 0
c p weight 44 1 0
c p weight -44 1 0
c p weight 55 0 0
c p weight -55 1 0
c p weight 56 1 0
c p weight -56 1 0
c p weight 57 -1 0
c p weight -57 1 0
c p weight 59 0.5 0
59 0
-7 0
-5 0
-3 0
-1 0
8 -7 1 0
8 -7 2 0
-8 7 1 0
-8 7 2 0
8 7 -1 -2 0
-8 -7 -1 -2 0
9 1 -2 0
9 -1 2 0
-9 1 2 0
-9 -1 -2 0
10 11 -8 0
10 -8 9 0
-10 11 8 0
-10 8 9 0
10 -8 -1 0
-10 8 -1 0
10 -11 8 1 -9 0
-10 -11 -8 1 -9 0
11 -1 9 0
-11 1 9 0
-12 9 0
11 -12 -1 0
-11 -12 1 0
11 12 1 -9 0
-11 12 -1 -9 0
-13 9 0
11 -13 1 0
-11 -13 -1 0
11 13 -1 -9 0
-11 13 1 -9 0
14 -10 11 0
14 -10 9 0
-14 10 11 0
-14 10 9 0
14 10 -11 -9 0
-14 -10 -11 -9 0
15 11 -9 0
15 -11 9 0
-15 11 9 0
-15 -11 -9 0
16 14 -15 0
16 -14 15 0
-16 14 15 0
-16 -14 -15 0
17 -16 3 0
17 -16 4 0
-17 16 3 0
-17 16 4 0
17 16 -3 -4 0
-17 -16 -3 -4 0
18 3 -4 0
18 -3 4 0
-18 3 4 0
-18 -3 -4 0
19 20 -17 0
19 -17 18 0
-19 20 17 0
-19 17 18 0
19 -17 -3 0
-19 17 -3 0
19 -20 17 3 -18 0
-19 -20 -17 3 -18 0
20 -3 18 0
-20 3 18 0
-21 18 0
20 -21 -3 0
-20 -21 3 0
20 21 3 -18 0
-20 21 -3 -18 0
-22 18 0
20 -22 3 0
-20 -22 -3 0
20 22 -3 -18 0
-20 22 3 -18 0
23 -19 20 0
23 -19 18 0
-23 19 20 0
-23 19 18 0
23 19 -20 -18 0
-23 -19 -20 -18 0
24 20 -18 0
24 -20 18 0
-24 20 18 0
-24 -20 -18 0
25 23 -24 0
25 -23 24 0
-25 23 24 0
-25 -23 -24 0
26 25 -6 0
26 -25 6 0
-26 25 6 0
-26 -25 -6 0
27 -26 5 0
27 -26 6 0
-27 26 5 0
-27 26 6 0
27 26 -5 -6 0
-27 -26 -5 -6 0
28 5 -6 0
28 -5 6 0
-28 5 6 0
-28 -5 -6 0
29 30 -27 0
29 -27 28 0
-29 30 27 0
-29 27 28 0
29 -27 -5 0
-29 27 -5 0
29 -30 27 5 -28 0
-29 -30 -27 5 -28 0
30 -5 28 0
-30 5 28 0
-31 28 0
30 -31 -5 0
-30 -31 5 0
30 31 5 -28 0
-30 31 -5 -28 0
-32 28 0
30 -32 5 0
-30 -32 -5 0
30 32 -5 -28 0
-30 32 5 -28 0
33 -29 30 0
33 -29 28 0
-33 29 30 0
-33 29 28 0
33 29 -30 -28 0
-33 -29 -30 -28 0
34 30 -28 0
34 -30 28 0
-34 30 28 0
-34 -30 -28 0
35 -33 11 0
35 -33 34 0
-35 33 11 0
-35 33 34 0
35 -33 30 -15 0
35 -33 -30 15 0
-35 33 30 -15 0
-35 33 -30 15 0
35 33 -11 30 15 -34 0
35 33 -11 -30 -15 -34 0
-35 -33 -11 30 15 -34 0
-35 -33 -11 -30 -15 -34 0
37 11 -30 0
37 -11 30 0
-37 11 30 0
-37 -11 -30 0
36 15 -34 0
36 -15 34 0
-36 15 34 0
-36 -15 -34 0
38 35 -36 0
38 -35 36 0
-38 35 36 0
-38 -35 -36 0
39 -38 11 0
39 -38 36 0
-39 38 11 0
-39 38 36 0
39 38 -11 -36 0
-39 -38 -11 -36 0
40 11 -36 0
40 -11 36 0
-40 11 36 0
-40 -11 -36 0
41 42 -39 0
41 -39 40 0
-41 42 39 0
-41 39 40 0
41 -39 -11 0
-41 39 -11 0
41 -42 39 11 -40 0
-41 -42 -39 11 -40 0
42 -11 40 0
-42 11 40 0
-43 40 0
42 -43 -11 0
-42 -43 11 0
42 43 11 -40 0
-42 43 -11 -40 0
-44 40 0
42 -44 11 0
-42 -44 -11 0
42 44 -11 -40 0
-42 44 11 -40 0
45 -41 42 0
45 -41 40 0
-45 41 42 0
-45 41 40 0
45 41 -42 -40 0
-45 -41 -42 -40 0
46 42 -40 0
46 -42 40 0
-46 42 40 0
-46 -42 -40 0
47 -45 20 0
47 -45 34 0
-47 45 20 0
-47 45 34 0
47 -45 37 -24 0
47 -45 -37 24 0
-47 45 37 -24 0
-47 45 -37 24 0
47 45 -20 37 24 -34 0
47 45 -20 -37 -24 -34 0
-47 -45 -20 37 24 -34 0
-47 -45 -20 -37 -24 -34 0
49 20 -37 0
49 -20 37 0
-49 20 37 0
-49 -20 -37 0
48 24 -34 0
48 -24 34 0
-48 24 34 0
-48 -24 -34 0
50 47 -48 0
50 -47 48 0
-50 47 48 0
-50 -47 -48 0
51 -50 20 0
51 -50 48 0
-51 50 20 0
-51 50 48 0
51 50 -20 -48 0
-51 -50 -20 -48 0
52 20 -48 0
52 -20 48 0
-52 20 48 0
-52 -20 -48 0
53 54 -51 0
53 -51 52 0
-53 54 51 0
-53 51 52 0
53 -51 -20 0
-53 51 -20 0
53 -54 51 20 -52 0
-53 -54 -51 20 -52 0
54 -20 52 0
-54 20 52 0
-55 52 0
54 -55 -20 0
-54 -55 20 0
54 55 20 -52 0
-54 55 -20 -52 0
-56 52 0
54 -56 20 0
-54 -56 -20 0
54 56 -20 -52 0
-54 56 20 -52 0
57 -53 54 0
57 -53 52 0
-57 53 54 0
-57 53 52 0
57 53 -54 -52 0
-57 -53 -54 -52 0
58 54 -52 0
58 -54 52 0
-58 54 52 0
-58 -54 -52 0
-42 0
-54 0
-58 0
-49 0
-34 0
